NAME          DCAP_2_4_3_500_SS91
ROWS
 N  OBJ
 L  CON1
 L  CON2
 L  CON3
 L  CON4
 L  CON5
 L  CON6
 L  CON7
 L  CON8
 L  CON9
 L  CON10
 L  CON11
 L  CON12
 E  CON13
 E  CON14
 E  CON15
 E  CON16
 E  CON17
 E  CON18
 E  CON19
 E  CON20
 E  CON21
 E  CON22
 E  CON23
 E  CON24
COLUMNS
    x[1,1]    OBJ       6.180167      CON1      1.000000    
    x[1,1]    CON7      -1.000000     CON8      -1.000000   
    x[1,1]    CON9      -1.000000   
    x[1,2]    OBJ       6.563535      CON2      1.000000    
    x[1,2]    CON8      -1.000000     CON9      -1.000000   
    x[1,3]    OBJ       7.443064      CON3      1.000000    
    x[1,3]    CON9      -1.000000   
    x[2,1]    OBJ       6.732585      CON4      1.000000    
    x[2,1]    CON10     -1.000000     CON11     -1.000000   
    x[2,1]    CON12     -1.000000   
    x[2,2]    OBJ       5.039546      CON5      1.000000    
    x[2,2]    CON11     -1.000000     CON12     -1.000000   
    x[2,3]    OBJ       6.054841      CON6      1.000000    
    x[2,3]    CON12     -1.000000   
    MARKER    'MARKER'                'INTORG'
    u[1,1]    OBJ       48.076654     CON1      -1.000000   
    u[1,2]    OBJ       20.066487     CON2      -1.000000   
    u[1,3]    OBJ       32.230043     CON3      -1.000000   
    u[2,1]    OBJ       49.996186     CON4      -1.000000   
    u[2,2]    OBJ       49.466655     CON5      -1.000000   
    u[2,3]    OBJ       27.484319     CON6      -1.000000   
    y[1,1,1]  OBJ       8.505125      CON7      1.282327    
    y[1,1,1]  CON13     1.000000    
    y[1,1,2]  OBJ       9.194784      CON8      1.132232    
    y[1,1,2]  CON14     1.000000    
    y[1,1,3]  OBJ       7.924355      CON9      1.404664    
    y[1,1,3]  CON15     1.000000    
    y[1,2,1]  OBJ       6.685324      CON7      1.000145    
    y[1,2,1]  CON16     1.000000    
    y[1,2,2]  OBJ       9.642300      CON8      0.716086    
    y[1,2,2]  CON17     1.000000    
    y[1,2,3]  OBJ       8.323764      CON9      1.058612    
    y[1,2,3]  CON18     1.000000    
    y[1,3,1]  OBJ       9.756239      CON7      1.324594    
    y[1,3,1]  CON19     1.000000    
    y[1,3,2]  OBJ       7.342979      CON8      0.700461    
    y[1,3,2]  CON20     1.000000    
    y[1,3,3]  OBJ       8.486190      CON9      0.912817    
    y[1,3,3]  CON21     1.000000    
    y[1,4,1]  OBJ       9.495400      CON7      0.850443    
    y[1,4,1]  CON22     1.000000    
    y[1,4,2]  OBJ       6.178378      CON8      1.029189    
    y[1,4,2]  CON23     1.000000    
    y[1,4,3]  OBJ       6.269832      CON9      1.418204    
    y[1,4,3]  CON24     1.000000    
    y[2,1,1]  OBJ       8.458474      CON10     1.282327    
    y[2,1,1]  CON13     1.000000    
    y[2,1,2]  OBJ       7.987135      CON11     1.132232    
    y[2,1,2]  CON14     1.000000    
    y[2,1,3]  OBJ       8.236627      CON12     1.404664    
    y[2,1,3]  CON15     1.000000    
    y[2,2,1]  OBJ       6.540189      CON10     1.000145    
    y[2,2,1]  CON16     1.000000    
    y[2,2,2]  OBJ       7.938165      CON11     0.716086    
    y[2,2,2]  CON17     1.000000    
    y[2,2,3]  OBJ       9.243608      CON12     1.058612    
    y[2,2,3]  CON18     1.000000    
    y[2,3,1]  OBJ       5.157941      CON10     1.324594    
    y[2,3,1]  CON19     1.000000    
    y[2,3,2]  OBJ       8.277255      CON11     0.700461    
    y[2,3,2]  CON20     1.000000    
    y[2,3,3]  OBJ       9.417305      CON12     0.912817    
    y[2,3,3]  CON21     1.000000    
    y[2,4,1]  OBJ       8.129740      CON10     0.850443    
    y[2,4,1]  CON22     1.000000    
    y[2,4,2]  OBJ       9.040156      CON11     1.029189    
    y[2,4,2]  CON23     1.000000    
    y[2,4,3]  OBJ       8.689908      CON12     1.418204    
    y[2,4,3]  CON24     1.000000    
    z[1,1]    OBJ       896.231757    CON13     1.000000    
    z[1,2]    OBJ       713.015563    CON14     1.000000    
    z[1,3]    OBJ       655.697963    CON15     1.000000    
    z[2,1]    OBJ       989.156320    CON16     1.000000    
    z[2,2]    OBJ       712.579049    CON17     1.000000    
    z[2,3]    OBJ       542.737290    CON18     1.000000    
    z[3,1]    OBJ       750.159546    CON19     1.000000    
    z[3,2]    OBJ       748.249189    CON20     1.000000    
    z[3,3]    OBJ       890.125857    CON21     1.000000    
    z[4,1]    OBJ       717.399036    CON22     1.000000    
    z[4,2]    OBJ       906.357998    CON23     1.000000    
    z[4,3]    OBJ       879.454266    CON24     1.000000    
    MARKER    'MARKER'                 'INTEND'
RHS
    RHS       CON1      -0.000000     CON2      -0.000000   
    RHS       CON3      -0.000000     CON4      -0.000000   
    RHS       CON5      -0.000000     CON6      -0.000000   
    RHS       CON7      -0.000000     CON8      -0.000000   
    RHS       CON9      -0.000000     CON10     -0.000000   
    RHS       CON11     -0.000000     CON12     -0.000000   
    RHS       CON13     1.000000      CON14     1.000000    
    RHS       CON15     1.000000      CON16     1.000000    
    RHS       CON17     1.000000      CON18     1.000000    
    RHS       CON19     1.000000      CON20     1.000000    
    RHS       CON21     1.000000      CON22     1.000000    
    RHS       CON23     1.000000      CON24     1.000000    
BOUNDS
 BV BOUND     u[1,1]  
 BV BOUND     u[1,2]  
 BV BOUND     u[1,3]  
 BV BOUND     u[2,1]  
 BV BOUND     u[2,2]  
 BV BOUND     u[2,3]  
 BV BOUND     y[1,1,1]
 BV BOUND     y[1,1,2]
 BV BOUND     y[1,1,3]
 BV BOUND     y[1,2,1]
 BV BOUND     y[1,2,2]
 BV BOUND     y[1,2,3]
 BV BOUND     y[1,3,1]
 BV BOUND     y[1,3,2]
 BV BOUND     y[1,3,3]
 BV BOUND     y[1,4,1]
 BV BOUND     y[1,4,2]
 BV BOUND     y[1,4,3]
 BV BOUND     y[2,1,1]
 BV BOUND     y[2,1,2]
 BV BOUND     y[2,1,3]
 BV BOUND     y[2,2,1]
 BV BOUND     y[2,2,2]
 BV BOUND     y[2,2,3]
 BV BOUND     y[2,3,1]
 BV BOUND     y[2,3,2]
 BV BOUND     y[2,3,3]
 BV BOUND     y[2,4,1]
 BV BOUND     y[2,4,2]
 BV BOUND     y[2,4,3]
 BV BOUND     z[1,1]  
 BV BOUND     z[1,2]  
 BV BOUND     z[1,3]  
 BV BOUND     z[2,1]  
 BV BOUND     z[2,2]  
 BV BOUND     z[2,3]  
 BV BOUND     z[3,1]  
 BV BOUND     z[3,2]  
 BV BOUND     z[3,3]  
 BV BOUND     z[4,1]  
 BV BOUND     z[4,2]  
 BV BOUND     z[4,3]  
ENDATA
